c
c start with comments
c
p cnf 30 28
-10 21 -18 0
-12 20 0
-5 -17 9 -6 -3 0
-29 -29 17 -15 -6 0
12 -30 -17 -25 -4 0
18 -2 -29 0
-1 28 13 0
-18 13 -3 0
15 -10 28 -19 0
-27 -6 -4 0
-14 -21 24 13 -21 0
-26 14 -7 0
18 9 -15 0
-18 6 19 0
22 -28 -4 0
12 -29 10 0
27 15 -6 0
23 19 13 0
13 -4 -19 -15 0
-22 -16 13 0
-20 25 0
29 10 -14 0
8 -19 29 0
11 10 28 6 7 -24 0
-11 -16 -27 0
-5 -22 2 0
-22 11 8 -4 0
-18 8 27 30 0